100 100 100
50
58 55 51
35 73 1
42 93 35
98 96 74
32 74 70
40 16 83
37 87 42
64 38 48
71 8 3
63 7 56
35 13 76
7 75 67
96 63 45
10 20 6
78 72 27
41 77 97
43 78 59
43 9 17
30 84 40
3 70 9
20 46 66
33 18 73
76 4 19
48 44 74
55 46 31
84 55 95
45 32 6
89 16 78
21 54 56
68 82 51
85 76 32
97 100 5
54 93 99
42 53 56
79 91 8
20 91 2
91 73 34
75 48 95
29 73 11
77 49 76
3 57 13
63 42 22
81 54 10
59 83 66
23 62 33
78 71 41
52 34 44
26 84 84
41 66 14
66 6 11
